NAME          
ROWS
 N  OBJ
 L  c1
 L  c2
 L  c3
COLUMNS
    MARKER    'MARKER'                 'INTORG'
    x[1]      c1        880
    x[1]      c2        357
    x[1]      c3        451
    x[1]      OBJ       -626
    x[2]      c1        913
    x[2]      c2        734
    x[2]      c3        77
    x[2]      OBJ       -703
    x[3]      c1        464
    x[3]      c2        391
    x[3]      c3        356
    x[3]      OBJ       -703
    x[4]      c1        965
    x[4]      c2        891
    x[4]      c3        792
    x[4]      OBJ       -36
    x[5]      c1        586
    x[5]      c2        894
    x[5]      c3        315
    x[5]      OBJ       -914
    x[6]      c1        564
    x[6]      c2        790
    x[6]      c3        514
    x[6]      OBJ       -519
    x[7]      c1        904
    x[7]      c2        361
    x[7]      c3        238
    x[7]      OBJ       -972
    x[8]      c1        844
    x[8]      c2        364
    x[8]      c3        754
    x[8]      OBJ       -607
    x[9]      c1        648
    x[9]      c2        851
    x[9]      c3        857
    x[9]      OBJ       -683
    x[10]     c1        404
    x[10]     c2        944
    x[10]     c3        674
    x[10]     OBJ       -718
    x[11]     c1        817
    x[11]     c2        31
    x[11]     c3        675
    x[11]     OBJ       -871
    x[12]     c1        349
    x[12]     c2        562
    x[12]     c3        681
    x[12]     OBJ       -256
    x[13]     c1        885
    x[13]     c2        933
    x[13]     c3        488
    x[13]     OBJ       -323
    x[14]     c1        733
    x[14]     c2        884
    x[14]     c3        899
    x[14]     OBJ       -981
    x[15]     c1        178
    x[15]     c2        645
    x[15]     c3        206
    x[15]     OBJ       -505
    x[16]     c1        537
    x[16]     c2        122
    x[16]     c3        897
    x[16]     OBJ       -870
    x[17]     c1        334
    x[17]     c2        423
    x[17]     c3        977
    x[17]     OBJ       -473
    x[18]     c1        706
    x[18]     c2        500
    x[18]     c3        294
    x[18]     OBJ       -920
    x[19]     c1        657
    x[19]     c2        399
    x[19]     c3        800
    x[19]     OBJ       -618
    x[20]     c1        767
    x[20]     c2        822
    x[20]     c3        395
    x[20]     OBJ       -468
RHS
    rhs       c1        6568
    rhs       c2        5949
    rhs       c3        5670
RANGES
BOUNDS
 BV bounds    x[1]
 BV bounds    x[2]
 BV bounds    x[3]
 BV bounds    x[4]
 BV bounds    x[5]
 BV bounds    x[6]
 BV bounds    x[7]
 BV bounds    x[8]
 BV bounds    x[9]
 BV bounds    x[10]
 BV bounds    x[11]
 BV bounds    x[12]
 BV bounds    x[13]
 BV bounds    x[14]
 BV bounds    x[15]
 BV bounds    x[16]
 BV bounds    x[17]
 BV bounds    x[18]
 BV bounds    x[19]
 BV bounds    x[20]
ENDATA
